\ LP format - for model browsing. Use MPS format to capture full model detail.
Maximize
  x0,1_1 + x0,1_15 + x0,1_21 + x0,1_28 + x0,1_44 + x0,1_62 + x0,1_74
   + x0,1_76 + x0,1_101 + x0,1_109 + x0,2_1 + x0,2_15 + x0,2_21 + x0,2_28
   + x0,2_44 + x0,2_62 + x0,2_74 + x0,2_76 + x0,2_101 + x0,2_109 + x0,3_1
   + x0,3_15 + x0,3_21 + x0,3_28 + x0,3_44 + x0,3_62 + x0,3_74 + x0,3_76
   + x0,3_101 + x0,3_109 + x0,4_1 + x0,4_15 + x0,4_21 + x0,4_28 + x0,4_44
   + x0,4_62 + x0,4_74 + x0,4_76 + x0,4_101 + x0,4_109 + x0,5_1 + x0,5_15
   + x0,5_21 + x0,5_28 + x0,5_44 + x0,5_62 + x0,5_74 + x0,5_76 + x0,5_101
   + x0,5_109 + x0,6_1 + x0,6_15 + x0,6_21 + x0,6_28 + x0,6_44 + x0,6_62
   + x0,6_74 + x0,6_76 + x0,6_101 + x0,6_109 + x0,7_1 + x0,7_15 + x0,7_21
   + x0,7_28 + x0,7_44 + x0,7_62 + x0,7_74 + x0,7_76 + x0,7_101 + x0,7_109
   + x1,2_1 + x1,2_15 + x1,2_21 + x1,2_28 + x1,2_44 + x1,2_62 + x1,2_74
   + x1,2_76 + x1,2_101 + x1,2_109 + x1,3_1 + x1,3_15 + x1,3_21 + x1,3_28
   + x1,3_44 + x1,3_62 + x1,3_74 + x1,3_76 + x1,3_101 + x1,3_109 + x1,4_1
   + x1,4_15 + x1,4_21 + x1,4_28 + x1,4_44 + x1,4_62 + x1,4_74 + x1,4_76
   + x1,4_101 + x1,4_109 + x1,5_1 + x1,5_15 + x1,5_21 + x1,5_28 + x1,5_44
   + x1,5_62 + x1,5_74 + x1,5_76 + x1,5_101 + x1,5_109 + x1,6_1 + x1,6_15
   + x1,6_21 + x1,6_28 + x1,6_44 + x1,6_62 + x1,6_74 + x1,6_76 + x1,6_101
   + x1,6_109 + x1,7_1 + x1,7_15 + x1,7_21 + x1,7_28 + x1,7_44 + x1,7_62
   + x1,7_74 + x1,7_76 + x1,7_101 + x1,7_109 + x2,3_1 + x2,3_15 + x2,3_21
   + x2,3_28 + x2,3_44 + x2,3_62 + x2,3_74 + x2,3_76 + x2,3_101 + x2,3_109
   + x2,4_1 + x2,4_15 + x2,4_21 + x2,4_28 + x2,4_44 + x2,4_62 + x2,4_74
   + x2,4_76 + x2,4_101 + x2,4_109 + x2,5_1 + x2,5_15 + x2,5_21 + x2,5_28
   + x2,5_44 + x2,5_62 + x2,5_74 + x2,5_76 + x2,5_101 + x2,5_109 + x2,6_1
   + x2,6_15 + x2,6_21 + x2,6_28 + x2,6_44 + x2,6_62 + x2,6_74 + x2,6_76
   + x2,6_101 + x2,6_109 + x2,7_1 + x2,7_15 + x2,7_21 + x2,7_28 + x2,7_44
   + x2,7_62 + x2,7_74 + x2,7_76 + x2,7_101 + x2,7_109 + x3,4_1 + x3,4_15
   + x3,4_21 + x3,4_28 + x3,4_44 + x3,4_62 + x3,4_74 + x3,4_76 + x3,4_101
   + x3,4_109 + x3,5_1 + x3,5_15 + x3,5_21 + x3,5_28 + x3,5_44 + x3,5_62
   + x3,5_74 + x3,5_76 + x3,5_101 + x3,5_109 + x3,6_1 + x3,6_15 + x3,6_21
   + x3,6_28 + x3,6_44 + x3,6_62 + x3,6_74 + x3,6_76 + x3,6_101 + x3,6_109
   + x3,7_1 + x3,7_15 + x3,7_21 + x3,7_28 + x3,7_44 + x3,7_62 + x3,7_74
   + x3,7_76 + x3,7_101 + x3,7_109 + x4,5_1 + x4,5_15 + x4,5_21 + x4,5_28
   + x4,5_44 + x4,5_62 + x4,5_74 + x4,5_76 + x4,5_101 + x4,5_109 + x4,6_1
   + x4,6_15 + x4,6_21 + x4,6_28 + x4,6_44 + x4,6_62 + x4,6_74 + x4,6_76
   + x4,6_101 + x4,6_109 + x4,7_1 + x4,7_15 + x4,7_21 + x4,7_28 + x4,7_44
   + x4,7_62 + x4,7_74 + x4,7_76 + x4,7_101 + x4,7_109 + x5,6_1 + x5,6_15
   + x5,6_21 + x5,6_28 + x5,6_44 + x5,6_62 + x5,6_74 + x5,6_76 + x5,6_101
   + x5,6_109 + x5,7_1 + x5,7_15 + x5,7_21 + x5,7_28 + x5,7_44 + x5,7_62
   + x5,7_74 + x5,7_76 + x5,7_101 + x5,7_109 + x6,7_1 + x6,7_15 + x6,7_21
   + x6,7_28 + x6,7_44 + x6,7_62 + x6,7_74 + x6,7_76 + x6,7_101 + x6,7_109
Subject To
 R0: x0,1_1 + x0,2_1 + x0,3_1 + x0,4_1 + x0,5_1 + x0,6_1 + x0,7_1 + x1,2_1
   + x1,3_1 + x1,4_1 + x1,5_1 + x1,6_1 + x1,7_1 + x2,3_1 + x2,4_1 + x2,5_1
   + x2,6_1 + x2,7_1 + x3,4_1 + x3,5_1 + x3,6_1 + x3,7_1 + x4,5_1 + x4,6_1
   + x4,7_1 + x5,6_1 + x5,7_1 + x6,7_1 <= 1
 R1: x0,1_15 + x0,2_15 + x0,3_15 + x0,4_15 + x0,5_15 + x0,6_15 + x0,7_15
   + x1,2_15 + x1,3_15 + x1,4_15 + x1,5_15 + x1,6_15 + x1,7_15 + x2,3_15
   + x2,4_15 + x2,5_15 + x2,6_15 + x2,7_15 + x3,4_15 + x3,5_15 + x3,6_15
   + x3,7_15 + x4,5_15 + x4,6_15 + x4,7_15 + x5,6_15 + x5,7_15 + x6,7_15
   <= 1
 R2: x0,1_21 + x0,2_21 + x0,3_21 + x0,4_21 + x0,5_21 + x0,6_21 + x0,7_21
   + x1,2_21 + x1,3_21 + x1,4_21 + x1,5_21 + x1,6_21 + x1,7_21 + x2,3_21
   + x2,4_21 + x2,5_21 + x2,6_21 + x2,7_21 + x3,4_21 + x3,5_21 + x3,6_21
   + x3,7_21 + x4,5_21 + x4,6_21 + x4,7_21 + x5,6_21 + x5,7_21 + x6,7_21
   <= 1
 R3: x0,1_28 + x0,2_28 + x0,3_28 + x0,4_28 + x0,5_28 + x0,6_28 + x0,7_28
   + x1,2_28 + x1,3_28 + x1,4_28 + x1,5_28 + x1,6_28 + x1,7_28 + x2,3_28
   + x2,4_28 + x2,5_28 + x2,6_28 + x2,7_28 + x3,4_28 + x3,5_28 + x3,6_28
   + x3,7_28 + x4,5_28 + x4,6_28 + x4,7_28 + x5,6_28 + x5,7_28 + x6,7_28
   <= 1
 R4: x0,1_44 + x0,2_44 + x0,3_44 + x0,4_44 + x0,5_44 + x0,6_44 + x0,7_44
   + x1,2_44 + x1,3_44 + x1,4_44 + x1,5_44 + x1,6_44 + x1,7_44 + x2,3_44
   + x2,4_44 + x2,5_44 + x2,6_44 + x2,7_44 + x3,4_44 + x3,5_44 + x3,6_44
   + x3,7_44 + x4,5_44 + x4,6_44 + x4,7_44 + x5,6_44 + x5,7_44 + x6,7_44
   <= 1
 R5: x0,1_62 + x0,2_62 + x0,3_62 + x0,4_62 + x0,5_62 + x0,6_62 + x0,7_62
   + x1,2_62 + x1,3_62 + x1,4_62 + x1,5_62 + x1,6_62 + x1,7_62 + x2,3_62
   + x2,4_62 + x2,5_62 + x2,6_62 + x2,7_62 + x3,4_62 + x3,5_62 + x3,6_62
   + x3,7_62 + x4,5_62 + x4,6_62 + x4,7_62 + x5,6_62 + x5,7_62 + x6,7_62
   <= 1
 R6: x0,1_74 + x0,2_74 + x0,3_74 + x0,4_74 + x0,5_74 + x0,6_74 + x0,7_74
   + x1,2_74 + x1,3_74 + x1,4_74 + x1,5_74 + x1,6_74 + x1,7_74 + x2,3_74
   + x2,4_74 + x2,5_74 + x2,6_74 + x2,7_74 + x3,4_74 + x3,5_74 + x3,6_74
   + x3,7_74 + x4,5_74 + x4,6_74 + x4,7_74 + x5,6_74 + x5,7_74 + x6,7_74
   <= 1
 R7: x0,1_76 + x0,2_76 + x0,3_76 + x0,4_76 + x0,5_76 + x0,6_76 + x0,7_76
   + x1,2_76 + x1,3_76 + x1,4_76 + x1,5_76 + x1,6_76 + x1,7_76 + x2,3_76
   + x2,4_76 + x2,5_76 + x2,6_76 + x2,7_76 + x3,4_76 + x3,5_76 + x3,6_76
   + x3,7_76 + x4,5_76 + x4,6_76 + x4,7_76 + x5,6_76 + x5,7_76 + x6,7_76
   <= 1
 R8: x0,1_101 + x0,2_101 + x0,3_101 + x0,4_101 + x0,5_101 + x0,6_101
   + x0,7_101 + x1,2_101 + x1,3_101 + x1,4_101 + x1,5_101 + x1,6_101
   + x1,7_101 + x2,3_101 + x2,4_101 + x2,5_101 + x2,6_101 + x2,7_101
   + x3,4_101 + x3,5_101 + x3,6_101 + x3,7_101 + x4,5_101 + x4,6_101
   + x4,7_101 + x5,6_101 + x5,7_101 + x6,7_101 <= 1
 R9: x0,1_109 + x0,2_109 + x0,3_109 + x0,4_109 + x0,5_109 + x0,6_109
   + x0,7_109 + x1,2_109 + x1,3_109 + x1,4_109 + x1,5_109 + x1,6_109
   + x1,7_109 + x2,3_109 + x2,4_109 + x2,5_109 + x2,6_109 + x2,7_109
   + x3,4_109 + x3,5_109 + x3,6_109 + x3,7_109 + x4,5_109 + x4,6_109
   + x4,7_109 + x5,6_109 + x5,7_109 + x6,7_109 <= 1
 R10: x0,1_1 + x0,1_15 + x0,1_21 + x0,1_28 + x0,1_44 + x0,1_62 + x0,1_74
   + x0,1_76 + x0,1_101 + x0,1_109 <= 1
 R11: x0,2_1 + x0,2_15 + x0,2_21 + x0,2_28 + x0,2_44 + x0,2_62 + x0,2_74
   + x0,2_76 + x0,2_101 + x0,2_109 <= 1
 R12: x0,3_1 + x0,3_15 + x0,3_21 + x0,3_28 + x0,3_44 + x0,3_62 + x0,3_74
   + x0,3_76 + x0,3_101 + x0,3_109 <= 1
 R13: x0,4_1 + x0,4_15 + x0,4_21 + x0,4_28 + x0,4_44 + x0,4_62 + x0,4_74
   + x0,4_76 + x0,4_101 + x0,4_109 <= 1
 R14: x0,5_1 + x0,5_15 + x0,5_21 + x0,5_28 + x0,5_44 + x0,5_62 + x0,5_74
   + x0,5_76 + x0,5_101 + x0,5_109 <= 1
 R15: x0,6_1 + x0,6_15 + x0,6_21 + x0,6_28 + x0,6_44 + x0,6_62 + x0,6_74
   + x0,6_76 + x0,6_101 + x0,6_109 <= 1
 R16: x0,7_1 + x0,7_15 + x0,7_21 + x0,7_28 + x0,7_44 + x0,7_62 + x0,7_74
   + x0,7_76 + x0,7_101 + x0,7_109 <= 1
 R17: x1,2_1 + x1,2_15 + x1,2_21 + x1,2_28 + x1,2_44 + x1,2_62 + x1,2_74
   + x1,2_76 + x1,2_101 + x1,2_109 <= 1
 R18: x1,3_1 + x1,3_15 + x1,3_21 + x1,3_28 + x1,3_44 + x1,3_62 + x1,3_74
   + x1,3_76 + x1,3_101 + x1,3_109 <= 1
 R19: x1,4_1 + x1,4_15 + x1,4_21 + x1,4_28 + x1,4_44 + x1,4_62 + x1,4_74
   + x1,4_76 + x1,4_101 + x1,4_109 <= 1
 R20: x1,5_1 + x1,5_15 + x1,5_21 + x1,5_28 + x1,5_44 + x1,5_62 + x1,5_74
   + x1,5_76 + x1,5_101 + x1,5_109 <= 1
 R21: x1,6_1 + x1,6_15 + x1,6_21 + x1,6_28 + x1,6_44 + x1,6_62 + x1,6_74
   + x1,6_76 + x1,6_101 + x1,6_109 <= 1
 R22: x1,7_1 + x1,7_15 + x1,7_21 + x1,7_28 + x1,7_44 + x1,7_62 + x1,7_74
   + x1,7_76 + x1,7_101 + x1,7_109 <= 1
 R23: x2,3_1 + x2,3_15 + x2,3_21 + x2,3_28 + x2,3_44 + x2,3_62 + x2,3_74
   + x2,3_76 + x2,3_101 + x2,3_109 <= 1
 R24: x2,4_1 + x2,4_15 + x2,4_21 + x2,4_28 + x2,4_44 + x2,4_62 + x2,4_74
   + x2,4_76 + x2,4_101 + x2,4_109 <= 1
 R25: x2,5_1 + x2,5_15 + x2,5_21 + x2,5_28 + x2,5_44 + x2,5_62 + x2,5_74
   + x2,5_76 + x2,5_101 + x2,5_109 <= 1
 R26: x2,6_1 + x2,6_15 + x2,6_21 + x2,6_28 + x2,6_44 + x2,6_62 + x2,6_74
   + x2,6_76 + x2,6_101 + x2,6_109 <= 1
 R27: x2,7_1 + x2,7_15 + x2,7_21 + x2,7_28 + x2,7_44 + x2,7_62 + x2,7_74
   + x2,7_76 + x2,7_101 + x2,7_109 <= 1
 R28: x3,4_1 + x3,4_15 + x3,4_21 + x3,4_28 + x3,4_44 + x3,4_62 + x3,4_74
   + x3,4_76 + x3,4_101 + x3,4_109 <= 1
 R29: x3,5_1 + x3,5_15 + x3,5_21 + x3,5_28 + x3,5_44 + x3,5_62 + x3,5_74
   + x3,5_76 + x3,5_101 + x3,5_109 <= 1
 R30: x3,6_1 + x3,6_15 + x3,6_21 + x3,6_28 + x3,6_44 + x3,6_62 + x3,6_74
   + x3,6_76 + x3,6_101 + x3,6_109 <= 1
 R31: x3,7_1 + x3,7_15 + x3,7_21 + x3,7_28 + x3,7_44 + x3,7_62 + x3,7_74
   + x3,7_76 + x3,7_101 + x3,7_109 <= 1
 R32: x4,5_1 + x4,5_15 + x4,5_21 + x4,5_28 + x4,5_44 + x4,5_62 + x4,5_74
   + x4,5_76 + x4,5_101 + x4,5_109 <= 1
 R33: x4,6_1 + x4,6_15 + x4,6_21 + x4,6_28 + x4,6_44 + x4,6_62 + x4,6_74
   + x4,6_76 + x4,6_101 + x4,6_109 <= 1
 R34: x4,7_1 + x4,7_15 + x4,7_21 + x4,7_28 + x4,7_44 + x4,7_62 + x4,7_74
   + x4,7_76 + x4,7_101 + x4,7_109 <= 1
 R35: x5,6_1 + x5,6_15 + x5,6_21 + x5,6_28 + x5,6_44 + x5,6_62 + x5,6_74
   + x5,6_76 + x5,6_101 + x5,6_109 <= 1
 R36: x5,7_1 + x5,7_15 + x5,7_21 + x5,7_28 + x5,7_44 + x5,7_62 + x5,7_74
   + x5,7_76 + x5,7_101 + x5,7_109 <= 1
 R37: x6,7_1 + x6,7_15 + x6,7_21 + x6,7_28 + x6,7_44 + x6,7_62 + x6,7_74
   + x6,7_76 + x6,7_101 + x6,7_109 <= 1
 R38: p0 - p1 <= -1
 R39: - x0,1_1 - p0 + p1 >= 0
 R40: 531 x0,1_1 - p0 + p1 <= 532
 R41: - 15 x0,1_15 - p0 + p1 >= 0
 R42: 531 x0,1_15 - p0 + p1 <= 546
 R43: - 21 x0,1_21 - p0 + p1 >= 0
 R44: 531 x0,1_21 - p0 + p1 <= 552
 R45: - 28 x0,1_28 - p0 + p1 >= 0
 R46: 531 x0,1_28 - p0 + p1 <= 559
 R47: - 44 x0,1_44 - p0 + p1 >= 0
 R48: 531 x0,1_44 - p0 + p1 <= 575
 R49: - 62 x0,1_62 - p0 + p1 >= 0
 R50: 531 x0,1_62 - p0 + p1 <= 593
 R51: - 74 x0,1_74 - p0 + p1 >= 0
 R52: 531 x0,1_74 - p0 + p1 <= 605
 R53: - 76 x0,1_76 - p0 + p1 >= 0
 R54: 531 x0,1_76 - p0 + p1 <= 607
 R55: - 101 x0,1_101 - p0 + p1 >= 0
 R56: 531 x0,1_101 - p0 + p1 <= 632
 R57: - 109 x0,1_109 - p0 + p1 >= 0
 R58: 531 x0,1_109 - p0 + p1 <= 640
 R59: p0 - p2 <= -1
 R60: - x0,2_1 - p0 + p2 >= 0
 R61: 531 x0,2_1 - p0 + p2 <= 532
 R62: - 15 x0,2_15 - p0 + p2 >= 0
 R63: 531 x0,2_15 - p0 + p2 <= 546
 R64: - 21 x0,2_21 - p0 + p2 >= 0
 R65: 531 x0,2_21 - p0 + p2 <= 552
 R66: - 28 x0,2_28 - p0 + p2 >= 0
 R67: 531 x0,2_28 - p0 + p2 <= 559
 R68: - 44 x0,2_44 - p0 + p2 >= 0
 R69: 531 x0,2_44 - p0 + p2 <= 575
 R70: - 62 x0,2_62 - p0 + p2 >= 0
 R71: 531 x0,2_62 - p0 + p2 <= 593
 R72: - 74 x0,2_74 - p0 + p2 >= 0
 R73: 531 x0,2_74 - p0 + p2 <= 605
 R74: - 76 x0,2_76 - p0 + p2 >= 0
 R75: 531 x0,2_76 - p0 + p2 <= 607
 R76: - 101 x0,2_101 - p0 + p2 >= 0
 R77: 531 x0,2_101 - p0 + p2 <= 632
 R78: - 109 x0,2_109 - p0 + p2 >= 0
 R79: 531 x0,2_109 - p0 + p2 <= 640
 R80: p0 - p3 <= -1
 R81: - x0,3_1 - p0 + p3 >= 0
 R82: 531 x0,3_1 - p0 + p3 <= 532
 R83: - 15 x0,3_15 - p0 + p3 >= 0
 R84: 531 x0,3_15 - p0 + p3 <= 546
 R85: - 21 x0,3_21 - p0 + p3 >= 0
 R86: 531 x0,3_21 - p0 + p3 <= 552
 R87: - 28 x0,3_28 - p0 + p3 >= 0
 R88: 531 x0,3_28 - p0 + p3 <= 559
 R89: - 44 x0,3_44 - p0 + p3 >= 0
 R90: 531 x0,3_44 - p0 + p3 <= 575
 R91: - 62 x0,3_62 - p0 + p3 >= 0
 R92: 531 x0,3_62 - p0 + p3 <= 593
 R93: - 74 x0,3_74 - p0 + p3 >= 0
 R94: 531 x0,3_74 - p0 + p3 <= 605
 R95: - 76 x0,3_76 - p0 + p3 >= 0
 R96: 531 x0,3_76 - p0 + p3 <= 607
 R97: - 101 x0,3_101 - p0 + p3 >= 0
 R98: 531 x0,3_101 - p0 + p3 <= 632
 R99: - 109 x0,3_109 - p0 + p3 >= 0
 R100: 531 x0,3_109 - p0 + p3 <= 640
 R101: p0 - p4 <= -1
 R102: - x0,4_1 - p0 + p4 >= 0
 R103: 531 x0,4_1 - p0 + p4 <= 532
 R104: - 15 x0,4_15 - p0 + p4 >= 0
 R105: 531 x0,4_15 - p0 + p4 <= 546
 R106: - 21 x0,4_21 - p0 + p4 >= 0
 R107: 531 x0,4_21 - p0 + p4 <= 552
 R108: - 28 x0,4_28 - p0 + p4 >= 0
 R109: 531 x0,4_28 - p0 + p4 <= 559
 R110: - 44 x0,4_44 - p0 + p4 >= 0
 R111: 531 x0,4_44 - p0 + p4 <= 575
 R112: - 62 x0,4_62 - p0 + p4 >= 0
 R113: 531 x0,4_62 - p0 + p4 <= 593
 R114: - 74 x0,4_74 - p0 + p4 >= 0
 R115: 531 x0,4_74 - p0 + p4 <= 605
 R116: - 76 x0,4_76 - p0 + p4 >= 0
 R117: 531 x0,4_76 - p0 + p4 <= 607
 R118: - 101 x0,4_101 - p0 + p4 >= 0
 R119: 531 x0,4_101 - p0 + p4 <= 632
 R120: - 109 x0,4_109 - p0 + p4 >= 0
 R121: 531 x0,4_109 - p0 + p4 <= 640
 R122: p0 - p5 <= -1
 R123: - x0,5_1 - p0 + p5 >= 0
 R124: 531 x0,5_1 - p0 + p5 <= 532
 R125: - 15 x0,5_15 - p0 + p5 >= 0
 R126: 531 x0,5_15 - p0 + p5 <= 546
 R127: - 21 x0,5_21 - p0 + p5 >= 0
 R128: 531 x0,5_21 - p0 + p5 <= 552
 R129: - 28 x0,5_28 - p0 + p5 >= 0
 R130: 531 x0,5_28 - p0 + p5 <= 559
 R131: - 44 x0,5_44 - p0 + p5 >= 0
 R132: 531 x0,5_44 - p0 + p5 <= 575
 R133: - 62 x0,5_62 - p0 + p5 >= 0
 R134: 531 x0,5_62 - p0 + p5 <= 593
 R135: - 74 x0,5_74 - p0 + p5 >= 0
 R136: 531 x0,5_74 - p0 + p5 <= 605
 R137: - 76 x0,5_76 - p0 + p5 >= 0
 R138: 531 x0,5_76 - p0 + p5 <= 607
 R139: - 101 x0,5_101 - p0 + p5 >= 0
 R140: 531 x0,5_101 - p0 + p5 <= 632
 R141: - 109 x0,5_109 - p0 + p5 >= 0
 R142: 531 x0,5_109 - p0 + p5 <= 640
 R143: p0 - p6 <= -1
 R144: - x0,6_1 - p0 + p6 >= 0
 R145: 531 x0,6_1 - p0 + p6 <= 532
 R146: - 15 x0,6_15 - p0 + p6 >= 0
 R147: 531 x0,6_15 - p0 + p6 <= 546
 R148: - 21 x0,6_21 - p0 + p6 >= 0
 R149: 531 x0,6_21 - p0 + p6 <= 552
 R150: - 28 x0,6_28 - p0 + p6 >= 0
 R151: 531 x0,6_28 - p0 + p6 <= 559
 R152: - 44 x0,6_44 - p0 + p6 >= 0
 R153: 531 x0,6_44 - p0 + p6 <= 575
 R154: - 62 x0,6_62 - p0 + p6 >= 0
 R155: 531 x0,6_62 - p0 + p6 <= 593
 R156: - 74 x0,6_74 - p0 + p6 >= 0
 R157: 531 x0,6_74 - p0 + p6 <= 605
 R158: - 76 x0,6_76 - p0 + p6 >= 0
 R159: 531 x0,6_76 - p0 + p6 <= 607
 R160: - 101 x0,6_101 - p0 + p6 >= 0
 R161: 531 x0,6_101 - p0 + p6 <= 632
 R162: - 109 x0,6_109 - p0 + p6 >= 0
 R163: 531 x0,6_109 - p0 + p6 <= 640
 R164: p0 - p7 <= -1
 R165: - x0,7_1 - p0 + p7 >= 0
 R166: 531 x0,7_1 - p0 + p7 <= 532
 R167: - 15 x0,7_15 - p0 + p7 >= 0
 R168: 531 x0,7_15 - p0 + p7 <= 546
 R169: - 21 x0,7_21 - p0 + p7 >= 0
 R170: 531 x0,7_21 - p0 + p7 <= 552
 R171: - 28 x0,7_28 - p0 + p7 >= 0
 R172: 531 x0,7_28 - p0 + p7 <= 559
 R173: - 44 x0,7_44 - p0 + p7 >= 0
 R174: 531 x0,7_44 - p0 + p7 <= 575
 R175: - 62 x0,7_62 - p0 + p7 >= 0
 R176: 531 x0,7_62 - p0 + p7 <= 593
 R177: - 74 x0,7_74 - p0 + p7 >= 0
 R178: 531 x0,7_74 - p0 + p7 <= 605
 R179: - 76 x0,7_76 - p0 + p7 >= 0
 R180: 531 x0,7_76 - p0 + p7 <= 607
 R181: - 101 x0,7_101 - p0 + p7 >= 0
 R182: 531 x0,7_101 - p0 + p7 <= 632
 R183: - 109 x0,7_109 - p0 + p7 >= 0
 R184: 531 x0,7_109 - p0 + p7 <= 640
 R185: p1 - p2 <= -1
 R186: - x1,2_1 - p1 + p2 >= 0
 R187: 531 x1,2_1 - p1 + p2 <= 532
 R188: - 15 x1,2_15 - p1 + p2 >= 0
 R189: 531 x1,2_15 - p1 + p2 <= 546
 R190: - 21 x1,2_21 - p1 + p2 >= 0
 R191: 531 x1,2_21 - p1 + p2 <= 552
 R192: - 28 x1,2_28 - p1 + p2 >= 0
 R193: 531 x1,2_28 - p1 + p2 <= 559
 R194: - 44 x1,2_44 - p1 + p2 >= 0
 R195: 531 x1,2_44 - p1 + p2 <= 575
 R196: - 62 x1,2_62 - p1 + p2 >= 0
 R197: 531 x1,2_62 - p1 + p2 <= 593
 R198: - 74 x1,2_74 - p1 + p2 >= 0
 R199: 531 x1,2_74 - p1 + p2 <= 605
 R200: - 76 x1,2_76 - p1 + p2 >= 0
 R201: 531 x1,2_76 - p1 + p2 <= 607
 R202: - 101 x1,2_101 - p1 + p2 >= 0
 R203: 531 x1,2_101 - p1 + p2 <= 632
 R204: - 109 x1,2_109 - p1 + p2 >= 0
 R205: 531 x1,2_109 - p1 + p2 <= 640
 R206: p1 - p3 <= -1
 R207: - x1,3_1 - p1 + p3 >= 0
 R208: 531 x1,3_1 - p1 + p3 <= 532
 R209: - 15 x1,3_15 - p1 + p3 >= 0
 R210: 531 x1,3_15 - p1 + p3 <= 546
 R211: - 21 x1,3_21 - p1 + p3 >= 0
 R212: 531 x1,3_21 - p1 + p3 <= 552
 R213: - 28 x1,3_28 - p1 + p3 >= 0
 R214: 531 x1,3_28 - p1 + p3 <= 559
 R215: - 44 x1,3_44 - p1 + p3 >= 0
 R216: 531 x1,3_44 - p1 + p3 <= 575
 R217: - 62 x1,3_62 - p1 + p3 >= 0
 R218: 531 x1,3_62 - p1 + p3 <= 593
 R219: - 74 x1,3_74 - p1 + p3 >= 0
 R220: 531 x1,3_74 - p1 + p3 <= 605
 R221: - 76 x1,3_76 - p1 + p3 >= 0
 R222: 531 x1,3_76 - p1 + p3 <= 607
 R223: - 101 x1,3_101 - p1 + p3 >= 0
 R224: 531 x1,3_101 - p1 + p3 <= 632
 R225: - 109 x1,3_109 - p1 + p3 >= 0
 R226: 531 x1,3_109 - p1 + p3 <= 640
 R227: p1 - p4 <= -1
 R228: - x1,4_1 - p1 + p4 >= 0
 R229: 531 x1,4_1 - p1 + p4 <= 532
 R230: - 15 x1,4_15 - p1 + p4 >= 0
 R231: 531 x1,4_15 - p1 + p4 <= 546
 R232: - 21 x1,4_21 - p1 + p4 >= 0
 R233: 531 x1,4_21 - p1 + p4 <= 552
 R234: - 28 x1,4_28 - p1 + p4 >= 0
 R235: 531 x1,4_28 - p1 + p4 <= 559
 R236: - 44 x1,4_44 - p1 + p4 >= 0
 R237: 531 x1,4_44 - p1 + p4 <= 575
 R238: - 62 x1,4_62 - p1 + p4 >= 0
 R239: 531 x1,4_62 - p1 + p4 <= 593
 R240: - 74 x1,4_74 - p1 + p4 >= 0
 R241: 531 x1,4_74 - p1 + p4 <= 605
 R242: - 76 x1,4_76 - p1 + p4 >= 0
 R243: 531 x1,4_76 - p1 + p4 <= 607
 R244: - 101 x1,4_101 - p1 + p4 >= 0
 R245: 531 x1,4_101 - p1 + p4 <= 632
 R246: - 109 x1,4_109 - p1 + p4 >= 0
 R247: 531 x1,4_109 - p1 + p4 <= 640
 R248: p1 - p5 <= -1
 R249: - x1,5_1 - p1 + p5 >= 0
 R250: 531 x1,5_1 - p1 + p5 <= 532
 R251: - 15 x1,5_15 - p1 + p5 >= 0
 R252: 531 x1,5_15 - p1 + p5 <= 546
 R253: - 21 x1,5_21 - p1 + p5 >= 0
 R254: 531 x1,5_21 - p1 + p5 <= 552
 R255: - 28 x1,5_28 - p1 + p5 >= 0
 R256: 531 x1,5_28 - p1 + p5 <= 559
 R257: - 44 x1,5_44 - p1 + p5 >= 0
 R258: 531 x1,5_44 - p1 + p5 <= 575
 R259: - 62 x1,5_62 - p1 + p5 >= 0
 R260: 531 x1,5_62 - p1 + p5 <= 593
 R261: - 74 x1,5_74 - p1 + p5 >= 0
 R262: 531 x1,5_74 - p1 + p5 <= 605
 R263: - 76 x1,5_76 - p1 + p5 >= 0
 R264: 531 x1,5_76 - p1 + p5 <= 607
 R265: - 101 x1,5_101 - p1 + p5 >= 0
 R266: 531 x1,5_101 - p1 + p5 <= 632
 R267: - 109 x1,5_109 - p1 + p5 >= 0
 R268: 531 x1,5_109 - p1 + p5 <= 640
 R269: p1 - p6 <= -1
 R270: - x1,6_1 - p1 + p6 >= 0
 R271: 531 x1,6_1 - p1 + p6 <= 532
 R272: - 15 x1,6_15 - p1 + p6 >= 0
 R273: 531 x1,6_15 - p1 + p6 <= 546
 R274: - 21 x1,6_21 - p1 + p6 >= 0
 R275: 531 x1,6_21 - p1 + p6 <= 552
 R276: - 28 x1,6_28 - p1 + p6 >= 0
 R277: 531 x1,6_28 - p1 + p6 <= 559
 R278: - 44 x1,6_44 - p1 + p6 >= 0
 R279: 531 x1,6_44 - p1 + p6 <= 575
 R280: - 62 x1,6_62 - p1 + p6 >= 0
 R281: 531 x1,6_62 - p1 + p6 <= 593
 R282: - 74 x1,6_74 - p1 + p6 >= 0
 R283: 531 x1,6_74 - p1 + p6 <= 605
 R284: - 76 x1,6_76 - p1 + p6 >= 0
 R285: 531 x1,6_76 - p1 + p6 <= 607
 R286: - 101 x1,6_101 - p1 + p6 >= 0
 R287: 531 x1,6_101 - p1 + p6 <= 632
 R288: - 109 x1,6_109 - p1 + p6 >= 0
 R289: 531 x1,6_109 - p1 + p6 <= 640
 R290: p1 - p7 <= -1
 R291: - x1,7_1 - p1 + p7 >= 0
 R292: 531 x1,7_1 - p1 + p7 <= 532
 R293: - 15 x1,7_15 - p1 + p7 >= 0
 R294: 531 x1,7_15 - p1 + p7 <= 546
 R295: - 21 x1,7_21 - p1 + p7 >= 0
 R296: 531 x1,7_21 - p1 + p7 <= 552
 R297: - 28 x1,7_28 - p1 + p7 >= 0
 R298: 531 x1,7_28 - p1 + p7 <= 559
 R299: - 44 x1,7_44 - p1 + p7 >= 0
 R300: 531 x1,7_44 - p1 + p7 <= 575
 R301: - 62 x1,7_62 - p1 + p7 >= 0
 R302: 531 x1,7_62 - p1 + p7 <= 593
 R303: - 74 x1,7_74 - p1 + p7 >= 0
 R304: 531 x1,7_74 - p1 + p7 <= 605
 R305: - 76 x1,7_76 - p1 + p7 >= 0
 R306: 531 x1,7_76 - p1 + p7 <= 607
 R307: - 101 x1,7_101 - p1 + p7 >= 0
 R308: 531 x1,7_101 - p1 + p7 <= 632
 R309: - 109 x1,7_109 - p1 + p7 >= 0
 R310: 531 x1,7_109 - p1 + p7 <= 640
 R311: p2 - p3 <= -1
 R312: - x2,3_1 - p2 + p3 >= 0
 R313: 531 x2,3_1 - p2 + p3 <= 532
 R314: - 15 x2,3_15 - p2 + p3 >= 0
 R315: 531 x2,3_15 - p2 + p3 <= 546
 R316: - 21 x2,3_21 - p2 + p3 >= 0
 R317: 531 x2,3_21 - p2 + p3 <= 552
 R318: - 28 x2,3_28 - p2 + p3 >= 0
 R319: 531 x2,3_28 - p2 + p3 <= 559
 R320: - 44 x2,3_44 - p2 + p3 >= 0
 R321: 531 x2,3_44 - p2 + p3 <= 575
 R322: - 62 x2,3_62 - p2 + p3 >= 0
 R323: 531 x2,3_62 - p2 + p3 <= 593
 R324: - 74 x2,3_74 - p2 + p3 >= 0
 R325: 531 x2,3_74 - p2 + p3 <= 605
 R326: - 76 x2,3_76 - p2 + p3 >= 0
 R327: 531 x2,3_76 - p2 + p3 <= 607
 R328: - 101 x2,3_101 - p2 + p3 >= 0
 R329: 531 x2,3_101 - p2 + p3 <= 632
 R330: - 109 x2,3_109 - p2 + p3 >= 0
 R331: 531 x2,3_109 - p2 + p3 <= 640
 R332: p2 - p4 <= -1
 R333: - x2,4_1 - p2 + p4 >= 0
 R334: 531 x2,4_1 - p2 + p4 <= 532
 R335: - 15 x2,4_15 - p2 + p4 >= 0
 R336: 531 x2,4_15 - p2 + p4 <= 546
 R337: - 21 x2,4_21 - p2 + p4 >= 0
 R338: 531 x2,4_21 - p2 + p4 <= 552
 R339: - 28 x2,4_28 - p2 + p4 >= 0
 R340: 531 x2,4_28 - p2 + p4 <= 559
 R341: - 44 x2,4_44 - p2 + p4 >= 0
 R342: 531 x2,4_44 - p2 + p4 <= 575
 R343: - 62 x2,4_62 - p2 + p4 >= 0
 R344: 531 x2,4_62 - p2 + p4 <= 593
 R345: - 74 x2,4_74 - p2 + p4 >= 0
 R346: 531 x2,4_74 - p2 + p4 <= 605
 R347: - 76 x2,4_76 - p2 + p4 >= 0
 R348: 531 x2,4_76 - p2 + p4 <= 607
 R349: - 101 x2,4_101 - p2 + p4 >= 0
 R350: 531 x2,4_101 - p2 + p4 <= 632
 R351: - 109 x2,4_109 - p2 + p4 >= 0
 R352: 531 x2,4_109 - p2 + p4 <= 640
 R353: p2 - p5 <= -1
 R354: - x2,5_1 - p2 + p5 >= 0
 R355: 531 x2,5_1 - p2 + p5 <= 532
 R356: - 15 x2,5_15 - p2 + p5 >= 0
 R357: 531 x2,5_15 - p2 + p5 <= 546
 R358: - 21 x2,5_21 - p2 + p5 >= 0
 R359: 531 x2,5_21 - p2 + p5 <= 552
 R360: - 28 x2,5_28 - p2 + p5 >= 0
 R361: 531 x2,5_28 - p2 + p5 <= 559
 R362: - 44 x2,5_44 - p2 + p5 >= 0
 R363: 531 x2,5_44 - p2 + p5 <= 575
 R364: - 62 x2,5_62 - p2 + p5 >= 0
 R365: 531 x2,5_62 - p2 + p5 <= 593
 R366: - 74 x2,5_74 - p2 + p5 >= 0
 R367: 531 x2,5_74 - p2 + p5 <= 605
 R368: - 76 x2,5_76 - p2 + p5 >= 0
 R369: 531 x2,5_76 - p2 + p5 <= 607
 R370: - 101 x2,5_101 - p2 + p5 >= 0
 R371: 531 x2,5_101 - p2 + p5 <= 632
 R372: - 109 x2,5_109 - p2 + p5 >= 0
 R373: 531 x2,5_109 - p2 + p5 <= 640
 R374: p2 - p6 <= -1
 R375: - x2,6_1 - p2 + p6 >= 0
 R376: 531 x2,6_1 - p2 + p6 <= 532
 R377: - 15 x2,6_15 - p2 + p6 >= 0
 R378: 531 x2,6_15 - p2 + p6 <= 546
 R379: - 21 x2,6_21 - p2 + p6 >= 0
 R380: 531 x2,6_21 - p2 + p6 <= 552
 R381: - 28 x2,6_28 - p2 + p6 >= 0
 R382: 531 x2,6_28 - p2 + p6 <= 559
 R383: - 44 x2,6_44 - p2 + p6 >= 0
 R384: 531 x2,6_44 - p2 + p6 <= 575
 R385: - 62 x2,6_62 - p2 + p6 >= 0
 R386: 531 x2,6_62 - p2 + p6 <= 593
 R387: - 74 x2,6_74 - p2 + p6 >= 0
 R388: 531 x2,6_74 - p2 + p6 <= 605
 R389: - 76 x2,6_76 - p2 + p6 >= 0
 R390: 531 x2,6_76 - p2 + p6 <= 607
 R391: - 101 x2,6_101 - p2 + p6 >= 0
 R392: 531 x2,6_101 - p2 + p6 <= 632
 R393: - 109 x2,6_109 - p2 + p6 >= 0
 R394: 531 x2,6_109 - p2 + p6 <= 640
 R395: p2 - p7 <= -1
 R396: - x2,7_1 - p2 + p7 >= 0
 R397: 531 x2,7_1 - p2 + p7 <= 532
 R398: - 15 x2,7_15 - p2 + p7 >= 0
 R399: 531 x2,7_15 - p2 + p7 <= 546
 R400: - 21 x2,7_21 - p2 + p7 >= 0
 R401: 531 x2,7_21 - p2 + p7 <= 552
 R402: - 28 x2,7_28 - p2 + p7 >= 0
 R403: 531 x2,7_28 - p2 + p7 <= 559
 R404: - 44 x2,7_44 - p2 + p7 >= 0
 R405: 531 x2,7_44 - p2 + p7 <= 575
 R406: - 62 x2,7_62 - p2 + p7 >= 0
 R407: 531 x2,7_62 - p2 + p7 <= 593
 R408: - 74 x2,7_74 - p2 + p7 >= 0
 R409: 531 x2,7_74 - p2 + p7 <= 605
 R410: - 76 x2,7_76 - p2 + p7 >= 0
 R411: 531 x2,7_76 - p2 + p7 <= 607
 R412: - 101 x2,7_101 - p2 + p7 >= 0
 R413: 531 x2,7_101 - p2 + p7 <= 632
 R414: - 109 x2,7_109 - p2 + p7 >= 0
 R415: 531 x2,7_109 - p2 + p7 <= 640
 R416: p3 - p4 <= -1
 R417: - x3,4_1 - p3 + p4 >= 0
 R418: 531 x3,4_1 - p3 + p4 <= 532
 R419: - 15 x3,4_15 - p3 + p4 >= 0
 R420: 531 x3,4_15 - p3 + p4 <= 546
 R421: - 21 x3,4_21 - p3 + p4 >= 0
 R422: 531 x3,4_21 - p3 + p4 <= 552
 R423: - 28 x3,4_28 - p3 + p4 >= 0
 R424: 531 x3,4_28 - p3 + p4 <= 559
 R425: - 44 x3,4_44 - p3 + p4 >= 0
 R426: 531 x3,4_44 - p3 + p4 <= 575
 R427: - 62 x3,4_62 - p3 + p4 >= 0
 R428: 531 x3,4_62 - p3 + p4 <= 593
 R429: - 74 x3,4_74 - p3 + p4 >= 0
 R430: 531 x3,4_74 - p3 + p4 <= 605
 R431: - 76 x3,4_76 - p3 + p4 >= 0
 R432: 531 x3,4_76 - p3 + p4 <= 607
 R433: - 101 x3,4_101 - p3 + p4 >= 0
 R434: 531 x3,4_101 - p3 + p4 <= 632
 R435: - 109 x3,4_109 - p3 + p4 >= 0
 R436: 531 x3,4_109 - p3 + p4 <= 640
 R437: p3 - p5 <= -1
 R438: - x3,5_1 - p3 + p5 >= 0
 R439: 531 x3,5_1 - p3 + p5 <= 532
 R440: - 15 x3,5_15 - p3 + p5 >= 0
 R441: 531 x3,5_15 - p3 + p5 <= 546
 R442: - 21 x3,5_21 - p3 + p5 >= 0
 R443: 531 x3,5_21 - p3 + p5 <= 552
 R444: - 28 x3,5_28 - p3 + p5 >= 0
 R445: 531 x3,5_28 - p3 + p5 <= 559
 R446: - 44 x3,5_44 - p3 + p5 >= 0
 R447: 531 x3,5_44 - p3 + p5 <= 575
 R448: - 62 x3,5_62 - p3 + p5 >= 0
 R449: 531 x3,5_62 - p3 + p5 <= 593
 R450: - 74 x3,5_74 - p3 + p5 >= 0
 R451: 531 x3,5_74 - p3 + p5 <= 605
 R452: - 76 x3,5_76 - p3 + p5 >= 0
 R453: 531 x3,5_76 - p3 + p5 <= 607
 R454: - 101 x3,5_101 - p3 + p5 >= 0
 R455: 531 x3,5_101 - p3 + p5 <= 632
 R456: - 109 x3,5_109 - p3 + p5 >= 0
 R457: 531 x3,5_109 - p3 + p5 <= 640
 R458: p3 - p6 <= -1
 R459: - x3,6_1 - p3 + p6 >= 0
 R460: 531 x3,6_1 - p3 + p6 <= 532
 R461: - 15 x3,6_15 - p3 + p6 >= 0
 R462: 531 x3,6_15 - p3 + p6 <= 546
 R463: - 21 x3,6_21 - p3 + p6 >= 0
 R464: 531 x3,6_21 - p3 + p6 <= 552
 R465: - 28 x3,6_28 - p3 + p6 >= 0
 R466: 531 x3,6_28 - p3 + p6 <= 559
 R467: - 44 x3,6_44 - p3 + p6 >= 0
 R468: 531 x3,6_44 - p3 + p6 <= 575
 R469: - 62 x3,6_62 - p3 + p6 >= 0
 R470: 531 x3,6_62 - p3 + p6 <= 593
 R471: - 74 x3,6_74 - p3 + p6 >= 0
 R472: 531 x3,6_74 - p3 + p6 <= 605
 R473: - 76 x3,6_76 - p3 + p6 >= 0
 R474: 531 x3,6_76 - p3 + p6 <= 607
 R475: - 101 x3,6_101 - p3 + p6 >= 0
 R476: 531 x3,6_101 - p3 + p6 <= 632
 R477: - 109 x3,6_109 - p3 + p6 >= 0
 R478: 531 x3,6_109 - p3 + p6 <= 640
 R479: p3 - p7 <= -1
 R480: - x3,7_1 - p3 + p7 >= 0
 R481: 531 x3,7_1 - p3 + p7 <= 532
 R482: - 15 x3,7_15 - p3 + p7 >= 0
 R483: 531 x3,7_15 - p3 + p7 <= 546
 R484: - 21 x3,7_21 - p3 + p7 >= 0
 R485: 531 x3,7_21 - p3 + p7 <= 552
 R486: - 28 x3,7_28 - p3 + p7 >= 0
 R487: 531 x3,7_28 - p3 + p7 <= 559
 R488: - 44 x3,7_44 - p3 + p7 >= 0
 R489: 531 x3,7_44 - p3 + p7 <= 575
 R490: - 62 x3,7_62 - p3 + p7 >= 0
 R491: 531 x3,7_62 - p3 + p7 <= 593
 R492: - 74 x3,7_74 - p3 + p7 >= 0
 R493: 531 x3,7_74 - p3 + p7 <= 605
 R494: - 76 x3,7_76 - p3 + p7 >= 0
 R495: 531 x3,7_76 - p3 + p7 <= 607
 R496: - 101 x3,7_101 - p3 + p7 >= 0
 R497: 531 x3,7_101 - p3 + p7 <= 632
 R498: - 109 x3,7_109 - p3 + p7 >= 0
 R499: 531 x3,7_109 - p3 + p7 <= 640
 R500: p4 - p5 <= -1
 R501: - x4,5_1 - p4 + p5 >= 0
 R502: 531 x4,5_1 - p4 + p5 <= 532
 R503: - 15 x4,5_15 - p4 + p5 >= 0
 R504: 531 x4,5_15 - p4 + p5 <= 546
 R505: - 21 x4,5_21 - p4 + p5 >= 0
 R506: 531 x4,5_21 - p4 + p5 <= 552
 R507: - 28 x4,5_28 - p4 + p5 >= 0
 R508: 531 x4,5_28 - p4 + p5 <= 559
 R509: - 44 x4,5_44 - p4 + p5 >= 0
 R510: 531 x4,5_44 - p4 + p5 <= 575
 R511: - 62 x4,5_62 - p4 + p5 >= 0
 R512: 531 x4,5_62 - p4 + p5 <= 593
 R513: - 74 x4,5_74 - p4 + p5 >= 0
 R514: 531 x4,5_74 - p4 + p5 <= 605
 R515: - 76 x4,5_76 - p4 + p5 >= 0
 R516: 531 x4,5_76 - p4 + p5 <= 607
 R517: - 101 x4,5_101 - p4 + p5 >= 0
 R518: 531 x4,5_101 - p4 + p5 <= 632
 R519: - 109 x4,5_109 - p4 + p5 >= 0
 R520: 531 x4,5_109 - p4 + p5 <= 640
 R521: p4 - p6 <= -1
 R522: - x4,6_1 - p4 + p6 >= 0
 R523: 531 x4,6_1 - p4 + p6 <= 532
 R524: - 15 x4,6_15 - p4 + p6 >= 0
 R525: 531 x4,6_15 - p4 + p6 <= 546
 R526: - 21 x4,6_21 - p4 + p6 >= 0
 R527: 531 x4,6_21 - p4 + p6 <= 552
 R528: - 28 x4,6_28 - p4 + p6 >= 0
 R529: 531 x4,6_28 - p4 + p6 <= 559
 R530: - 44 x4,6_44 - p4 + p6 >= 0
 R531: 531 x4,6_44 - p4 + p6 <= 575
 R532: - 62 x4,6_62 - p4 + p6 >= 0
 R533: 531 x4,6_62 - p4 + p6 <= 593
 R534: - 74 x4,6_74 - p4 + p6 >= 0
 R535: 531 x4,6_74 - p4 + p6 <= 605
 R536: - 76 x4,6_76 - p4 + p6 >= 0
 R537: 531 x4,6_76 - p4 + p6 <= 607
 R538: - 101 x4,6_101 - p4 + p6 >= 0
 R539: 531 x4,6_101 - p4 + p6 <= 632
 R540: - 109 x4,6_109 - p4 + p6 >= 0
 R541: 531 x4,6_109 - p4 + p6 <= 640
 R542: p4 - p7 <= -1
 R543: - x4,7_1 - p4 + p7 >= 0
 R544: 531 x4,7_1 - p4 + p7 <= 532
 R545: - 15 x4,7_15 - p4 + p7 >= 0
 R546: 531 x4,7_15 - p4 + p7 <= 546
 R547: - 21 x4,7_21 - p4 + p7 >= 0
 R548: 531 x4,7_21 - p4 + p7 <= 552
 R549: - 28 x4,7_28 - p4 + p7 >= 0
 R550: 531 x4,7_28 - p4 + p7 <= 559
 R551: - 44 x4,7_44 - p4 + p7 >= 0
 R552: 531 x4,7_44 - p4 + p7 <= 575
 R553: - 62 x4,7_62 - p4 + p7 >= 0
 R554: 531 x4,7_62 - p4 + p7 <= 593
 R555: - 74 x4,7_74 - p4 + p7 >= 0
 R556: 531 x4,7_74 - p4 + p7 <= 605
 R557: - 76 x4,7_76 - p4 + p7 >= 0
 R558: 531 x4,7_76 - p4 + p7 <= 607
 R559: - 101 x4,7_101 - p4 + p7 >= 0
 R560: 531 x4,7_101 - p4 + p7 <= 632
 R561: - 109 x4,7_109 - p4 + p7 >= 0
 R562: 531 x4,7_109 - p4 + p7 <= 640
 R563: p5 - p6 <= -1
 R564: - x5,6_1 - p5 + p6 >= 0
 R565: 531 x5,6_1 - p5 + p6 <= 532
 R566: - 15 x5,6_15 - p5 + p6 >= 0
 R567: 531 x5,6_15 - p5 + p6 <= 546
 R568: - 21 x5,6_21 - p5 + p6 >= 0
 R569: 531 x5,6_21 - p5 + p6 <= 552
 R570: - 28 x5,6_28 - p5 + p6 >= 0
 R571: 531 x5,6_28 - p5 + p6 <= 559
 R572: - 44 x5,6_44 - p5 + p6 >= 0
 R573: 531 x5,6_44 - p5 + p6 <= 575
 R574: - 62 x5,6_62 - p5 + p6 >= 0
 R575: 531 x5,6_62 - p5 + p6 <= 593
 R576: - 74 x5,6_74 - p5 + p6 >= 0
 R577: 531 x5,6_74 - p5 + p6 <= 605
 R578: - 76 x5,6_76 - p5 + p6 >= 0
 R579: 531 x5,6_76 - p5 + p6 <= 607
 R580: - 101 x5,6_101 - p5 + p6 >= 0
 R581: 531 x5,6_101 - p5 + p6 <= 632
 R582: - 109 x5,6_109 - p5 + p6 >= 0
 R583: 531 x5,6_109 - p5 + p6 <= 640
 R584: p5 - p7 <= -1
 R585: - x5,7_1 - p5 + p7 >= 0
 R586: 531 x5,7_1 - p5 + p7 <= 532
 R587: - 15 x5,7_15 - p5 + p7 >= 0
 R588: 531 x5,7_15 - p5 + p7 <= 546
 R589: - 21 x5,7_21 - p5 + p7 >= 0
 R590: 531 x5,7_21 - p5 + p7 <= 552
 R591: - 28 x5,7_28 - p5 + p7 >= 0
 R592: 531 x5,7_28 - p5 + p7 <= 559
 R593: - 44 x5,7_44 - p5 + p7 >= 0
 R594: 531 x5,7_44 - p5 + p7 <= 575
 R595: - 62 x5,7_62 - p5 + p7 >= 0
 R596: 531 x5,7_62 - p5 + p7 <= 593
 R597: - 74 x5,7_74 - p5 + p7 >= 0
 R598: 531 x5,7_74 - p5 + p7 <= 605
 R599: - 76 x5,7_76 - p5 + p7 >= 0
 R600: 531 x5,7_76 - p5 + p7 <= 607
 R601: - 101 x5,7_101 - p5 + p7 >= 0
 R602: 531 x5,7_101 - p5 + p7 <= 632
 R603: - 109 x5,7_109 - p5 + p7 >= 0
 R604: 531 x5,7_109 - p5 + p7 <= 640
 R605: p6 - p7 <= -1
 R606: - x6,7_1 - p6 + p7 >= 0
 R607: 531 x6,7_1 - p6 + p7 <= 532
 R608: - 15 x6,7_15 - p6 + p7 >= 0
 R609: 531 x6,7_15 - p6 + p7 <= 546
 R610: - 21 x6,7_21 - p6 + p7 >= 0
 R611: 531 x6,7_21 - p6 + p7 <= 552
 R612: - 28 x6,7_28 - p6 + p7 >= 0
 R613: 531 x6,7_28 - p6 + p7 <= 559
 R614: - 44 x6,7_44 - p6 + p7 >= 0
 R615: 531 x6,7_44 - p6 + p7 <= 575
 R616: - 62 x6,7_62 - p6 + p7 >= 0
 R617: 531 x6,7_62 - p6 + p7 <= 593
 R618: - 74 x6,7_74 - p6 + p7 >= 0
 R619: 531 x6,7_74 - p6 + p7 <= 605
 R620: - 76 x6,7_76 - p6 + p7 >= 0
 R621: 531 x6,7_76 - p6 + p7 <= 607
 R622: - 101 x6,7_101 - p6 + p7 >= 0
 R623: 531 x6,7_101 - p6 + p7 <= 632
 R624: - 109 x6,7_109 - p6 + p7 >= 0
 R625: 531 x6,7_109 - p6 + p7 <= 640
Bounds
Binaries
 x0,1_1 x0,1_15 x0,1_21 x0,1_28 x0,1_44 x0,1_62 x0,1_74 x0,1_76 x0,1_101
 x0,1_109 x0,2_1 x0,2_15 x0,2_21 x0,2_28 x0,2_44 x0,2_62 x0,2_74 x0,2_76
 x0,2_101 x0,2_109 x0,3_1 x0,3_15 x0,3_21 x0,3_28 x0,3_44 x0,3_62 x0,3_74
 x0,3_76 x0,3_101 x0,3_109 x0,4_1 x0,4_15 x0,4_21 x0,4_28 x0,4_44 x0,4_62
 x0,4_74 x0,4_76 x0,4_101 x0,4_109 x0,5_1 x0,5_15 x0,5_21 x0,5_28 x0,5_44
 x0,5_62 x0,5_74 x0,5_76 x0,5_101 x0,5_109 x0,6_1 x0,6_15 x0,6_21 x0,6_28
 x0,6_44 x0,6_62 x0,6_74 x0,6_76 x0,6_101 x0,6_109 x0,7_1 x0,7_15 x0,7_21
 x0,7_28 x0,7_44 x0,7_62 x0,7_74 x0,7_76 x0,7_101 x0,7_109 x1,2_1 x1,2_15
 x1,2_21 x1,2_28 x1,2_44 x1,2_62 x1,2_74 x1,2_76 x1,2_101 x1,2_109 x1,3_1
 x1,3_15 x1,3_21 x1,3_28 x1,3_44 x1,3_62 x1,3_74 x1,3_76 x1,3_101 x1,3_109
 x1,4_1 x1,4_15 x1,4_21 x1,4_28 x1,4_44 x1,4_62 x1,4_74 x1,4_76 x1,4_101
 x1,4_109 x1,5_1 x1,5_15 x1,5_21 x1,5_28 x1,5_44 x1,5_62 x1,5_74 x1,5_76
 x1,5_101 x1,5_109 x1,6_1 x1,6_15 x1,6_21 x1,6_28 x1,6_44 x1,6_62 x1,6_74
 x1,6_76 x1,6_101 x1,6_109 x1,7_1 x1,7_15 x1,7_21 x1,7_28 x1,7_44 x1,7_62
 x1,7_74 x1,7_76 x1,7_101 x1,7_109 x2,3_1 x2,3_15 x2,3_21 x2,3_28 x2,3_44
 x2,3_62 x2,3_74 x2,3_76 x2,3_101 x2,3_109 x2,4_1 x2,4_15 x2,4_21 x2,4_28
 x2,4_44 x2,4_62 x2,4_74 x2,4_76 x2,4_101 x2,4_109 x2,5_1 x2,5_15 x2,5_21
 x2,5_28 x2,5_44 x2,5_62 x2,5_74 x2,5_76 x2,5_101 x2,5_109 x2,6_1 x2,6_15
 x2,6_21 x2,6_28 x2,6_44 x2,6_62 x2,6_74 x2,6_76 x2,6_101 x2,6_109 x2,7_1
 x2,7_15 x2,7_21 x2,7_28 x2,7_44 x2,7_62 x2,7_74 x2,7_76 x2,7_101 x2,7_109
 x3,4_1 x3,4_15 x3,4_21 x3,4_28 x3,4_44 x3,4_62 x3,4_74 x3,4_76 x3,4_101
 x3,4_109 x3,5_1 x3,5_15 x3,5_21 x3,5_28 x3,5_44 x3,5_62 x3,5_74 x3,5_76
 x3,5_101 x3,5_109 x3,6_1 x3,6_15 x3,6_21 x3,6_28 x3,6_44 x3,6_62 x3,6_74
 x3,6_76 x3,6_101 x3,6_109 x3,7_1 x3,7_15 x3,7_21 x3,7_28 x3,7_44 x3,7_62
 x3,7_74 x3,7_76 x3,7_101 x3,7_109 x4,5_1 x4,5_15 x4,5_21 x4,5_28 x4,5_44
 x4,5_62 x4,5_74 x4,5_76 x4,5_101 x4,5_109 x4,6_1 x4,6_15 x4,6_21 x4,6_28
 x4,6_44 x4,6_62 x4,6_74 x4,6_76 x4,6_101 x4,6_109 x4,7_1 x4,7_15 x4,7_21
 x4,7_28 x4,7_44 x4,7_62 x4,7_74 x4,7_76 x4,7_101 x4,7_109 x5,6_1 x5,6_15
 x5,6_21 x5,6_28 x5,6_44 x5,6_62 x5,6_74 x5,6_76 x5,6_101 x5,6_109 x5,7_1
 x5,7_15 x5,7_21 x5,7_28 x5,7_44 x5,7_62 x5,7_74 x5,7_76 x5,7_101 x5,7_109
 x6,7_1 x6,7_15 x6,7_21 x6,7_28 x6,7_44 x6,7_62 x6,7_74 x6,7_76 x6,7_101
 x6,7_109
Generals
 p0 p1 p2 p3 p4 p5 p6 p7
End
